;test regex \W\d{1,3}\w{1,10}
(declare-const X String)
(assert (str.in_re X (re.++ (re.inter (re.diff re.allchar (re.range "a" "z")) (re.inter (re.diff re.allchar (re.range "A" "Z")) (re.inter (re.diff re.allchar (re.range "0" "9")) (re.diff re.allchar (str.to_re "_"))))) (re.++ ((_ re.loop 1 3) (re.range "0" "9")) ((_ re.loop 1 10) (re.union (re.range "a" "z") (re.union (re.range "A" "Z") (re.union (re.range "0" "9") (str.to_re "_")))))))))
; sanitize danger characters:  < > ' " &
(assert (not (str.in_re X (re.++ re.all (re.union (str.to_re "\u{3c}") (str.to_re "\u{3e}") (str.to_re "\u{27}") (str.to_re "\u{22}") (str.to_re "\u{26}")) re.all))))
(assert (< 20 (str.len X)))
(check-sat)
(get-model)